Welcome to the CBC MILP Solver 
Version: Trunk
Build Date: Apr 16 2020 

Starting solution of the Linear programming relaxation problem using Primal Simplex

Using Python-MIP package version 1.8.1
Machines:  4 Jobs:  4
Order: 
Job  0 : machine 0 ( 10 ) machine 3 ( 1 ) machine 2 ( 6 ) machine 1 ( 7 ) 
Job  1 : machine 0 ( 1 ) machine 3 ( 7 ) machine 1 ( 5 ) machine 2 ( 8 ) 
Job  2 : machine 3 ( 9 ) machine 2 ( 3 ) machine 1 ( 7 ) machine 0 ( 1 ) 
Job  3 : machine 1 ( 7 ) machine 3 ( 3 ) machine 0 ( 9 ) machine 2 ( 10 ) 
K:  44
Job  0 , e: machine  0 ( 0 ) machine  1 ( 17 ) machine  2 ( 11 ) machine  3 ( 10 ) 
Job  1 , e: machine  0 ( 0 ) machine  1 ( 8 ) machine  2 ( 13 ) machine  3 ( 1 ) 
Job  2 , e: machine  0 ( 19 ) machine  1 ( 12 ) machine  2 ( 9 ) machine  3 ( 0 ) 
Job  3 , e: machine  0 ( 10 ) machine  1 ( 0 ) machine  2 ( 19 ) machine  3 ( 7 ) 
Job  0 , f: machine  0 ( 14 ) machine  1 ( 0 ) machine  2 ( 7 ) machine  3 ( 13 ) 
Job  1 , f: machine  0 ( 20 ) machine  1 ( 8 ) machine  2 ( 0 ) machine  3 ( 13 ) 
Job  2 , f: machine  0 ( 0 ) machine  1 ( 1 ) machine  2 ( 8 ) machine  3 ( 11 ) 
Job  3 , f: machine  0 ( 10 ) machine  1 ( 22 ) machine  2 ( 0 ) machine  3 ( 19 ) 
EST and LST:
Job: 0 Machine: 0 EST: 0 LST: 20
Job: 0 Machine: 1 EST: 17 LST: 37
Job: 0 Machine: 2 EST: 11 LST: 31
Job: 0 Machine: 3 EST: 10 LST: 30
Job: 1 Machine: 0 EST: 0 LST: 23
Job: 1 Machine: 1 EST: 8 LST: 31
Job: 1 Machine: 2 EST: 13 LST: 36
Job: 1 Machine: 3 EST: 1 LST: 24
Job: 2 Machine: 0 EST: 19 LST: 43
Job: 2 Machine: 1 EST: 12 LST: 36
Job: 2 Machine: 2 EST: 9 LST: 33
Job: 2 Machine: 3 EST: 0 LST: 24
Job: 3 Machine: 0 EST: 10 LST: 25
Job: 3 Machine: 1 EST: 0 LST: 15
Job: 3 Machine: 2 EST: 19 LST: 34
Job: 3 Machine: 3 EST: 7 LST: 22
Order:
Job: 0 Machine: 0 = 0 
Job: 0 Machine: 1 = 3 
Job: 0 Machine: 2 = 2 
Job: 0 Machine: 3 = 1 
Job: 1 Machine: 0 = 0 
Job: 1 Machine: 1 = 2 
Job: 1 Machine: 2 = 3 
Job: 1 Machine: 3 = 1 
Job: 2 Machine: 0 = 3 
Job: 2 Machine: 1 = 2 
Job: 2 Machine: 2 = 1 
Job: 2 Machine: 3 = 0 
Job: 3 Machine: 0 = 2 
Job: 3 Machine: 1 = 0 
Job: 3 Machine: 2 = 3 
Job: 3 Machine: 3 = 1 
Distances:
Job 0, Machine 0 -> Machine 3: distance 10
Job 0, Machine 0 -> Machine 2: distance 11
Job 0, Machine 0 -> Machine 1: distance 17
Job 0, Machine 3 -> Machine 2: distance 1
Job 0, Machine 3 -> Machine 1: distance 7
Job 0, Machine 2 -> Machine 1: distance 6
Job 1, Machine 0 -> Machine 3: distance 1
Job 1, Machine 0 -> Machine 1: distance 8
Job 1, Machine 0 -> Machine 2: distance 13
Job 1, Machine 3 -> Machine 1: distance 7
Job 1, Machine 3 -> Machine 2: distance 12
Job 1, Machine 1 -> Machine 2: distance 5
Job 2, Machine 3 -> Machine 2: distance 9
Job 2, Machine 3 -> Machine 1: distance 12
Job 2, Machine 3 -> Machine 0: distance 19
Job 2, Machine 2 -> Machine 1: distance 3
Job 2, Machine 2 -> Machine 0: distance 10
Job 2, Machine 1 -> Machine 0: distance 7
Job 3, Machine 1 -> Machine 3: distance 7
Job 3, Machine 1 -> Machine 0: distance 10
Job 3, Machine 1 -> Machine 2: distance 19
Job 3, Machine 3 -> Machine 0: distance 3
Job 3, Machine 3 -> Machine 2: distance 12
Job 3, Machine 0 -> Machine 2: distance 9
McCormic linearization
{(0, 1), (0, 0), (2, 1), (2, 0), (1, 1)}
[(0, 1), (0, 0), (2, 1), (2, 0), (1, 1)]
obj:  0.9761206535400084
solutions:  1
+ 0.041474654377880185x(0,1) + 0.01131126937578551x(2,1) + 0.0029325513196480878x(1,1) 
C:  29.000000000000004
x(0,0) = 0.00	 x(0,1) = 22.00	 x(0,2) = 11.00	 x(0,3) = 10.00	 
x(1,0) = 2.00	 x(1,1) = 15.48	 x(1,2) = 20.48	 x(1,3) = 3.00	 
x(2,0) = 23.51	 x(2,1) = 15.00	 x(2,2) = 12.00	 x(2,3) = 3.00	 
x(3,0) = 10.00	 x(3,1) = 0.00	 x(3,2) = 19.00	 x(3,3) = 7.00	 
y(0,1,0) = 0.13	 y(1,0,0) = 0.88	 
y(0,2,0) = 0.79	 y(2,0,0) = 0.21	 
y(0,3,0) = 1.00	 y(3,0,0) = 0.00	 
y(1,2,0) = 0.51	 y(2,1,0) = 0.49	 
y(1,3,0) = 0.71	 y(3,1,0) = 0.29	 
y(2,3,0) = 0.00	 y(3,2,0) = 1.00	 
y(0,1,1) = 0.06	 y(1,0,1) = 0.94	 
y(0,2,1) = 0.00	 y(2,0,1) = 1.00	 
y(0,3,1) = 0.00	 y(3,0,1) = 1.00	 
y(1,2,1) = 0.19	 y(2,1,1) = 0.81	 
y(1,3,1) = 0.35	 y(3,1,1) = 0.65	 
y(2,3,1) = 0.00	 y(3,2,1) = 1.00	 
y(0,1,2) = 0.82	 y(1,0,2) = 0.18	 
y(0,2,2) = 0.21	 y(2,0,2) = 0.79	 
y(0,3,2) = 0.93	 y(3,0,2) = 0.07	 
y(1,2,2) = 0.00	 y(2,1,2) = 1.00	 
y(1,3,2) = 0.27	 y(3,1,2) = 0.73	 
y(2,3,2) = 0.82	 y(3,2,2) = 0.18	 
y(0,1,3) = 0.00	 y(1,0,3) = 1.00	 
y(0,2,3) = 0.09	 y(2,0,3) = 0.91	 
y(0,3,3) = 0.00	 y(3,0,3) = 1.00	 
y(1,2,3) = 0.28	 y(2,1,3) = 0.72	 
y(1,3,3) = 0.29	 y(3,1,3) = 0.71	 
y(2,3,3) = 0.28	 y(3,2,3) = 0.72	 
{(0, 0), (2, 1), (2, 0), (1, 0), (1, 1)}
obj:  0.19999999999999996
solutions:  1
+ x(0,0) + 0.1x(1,0) 
[(0, 0), (2, 1), (2, 0), (1, 0), (1, 1)]
cliques:  1 mip: 36
C:  28.999999999999993
x(0,0) = 1.13	 x(0,1) = 20.36	 x(0,2) = 14.36	 x(0,3) = 13.36	 
x(1,0) = 2.68	 x(1,1) = 16.00	 x(1,2) = 21.00	 x(1,3) = 6.36	 
x(2,0) = 25.78	 x(2,1) = 18.78	 x(2,2) = 13.36	 x(2,3) = 4.36	 
x(3,0) = 10.00	 x(3,1) = 0.00	 x(3,2) = 19.00	 x(3,3) = 7.00	 
y(0,1,0) = 0.11	 y(1,0,0) = 0.89	 
y(0,2,0) = 0.77	 y(2,0,0) = 0.23	 
y(0,3,0) = 0.94	 y(3,0,0) = 0.06	 
y(1,2,0) = 0.55	 y(2,1,0) = 0.45	 
y(1,3,0) = 0.48	 y(3,1,0) = 0.52	 
y(2,3,0) = 0.00	 y(3,2,0) = 1.00	 
y(0,1,1) = 0.24	 y(1,0,1) = 0.76	 
y(0,2,1) = 0.21	 y(2,0,1) = 0.79	 
y(0,3,1) = 0.00	 y(3,0,1) = 1.00	 
y(1,2,1) = 0.28	 y(2,1,1) = 0.72	 
y(1,3,1) = 0.37	 y(3,1,1) = 0.63	 
y(2,3,1) = 0.00	 y(3,2,1) = 1.00	 
y(0,1,2) = 0.72	 y(1,0,2) = 0.28	 
y(0,2,2) = 0.17	 y(2,0,2) = 0.83	 
y(0,3,2) = 0.84	 y(3,0,2) = 0.16	 
y(1,2,2) = 0.00	 y(2,1,2) = 1.00	 
y(1,3,2) = 0.26	 y(3,1,2) = 0.74	 
y(2,3,2) = 0.88	 y(3,2,2) = 0.12	 
y(0,1,3) = 0.00	 y(1,0,3) = 1.00	 
y(0,2,3) = 0.00	 y(2,0,3) = 1.00	 
y(0,3,3) = 0.17	 y(3,0,3) = 0.83	 
y(1,2,3) = 0.22	 y(2,1,3) = 0.78	 
y(1,3,3) = 0.52	 y(3,1,3) = 0.48	 
y(2,3,3) = 0.23	 y(3,2,3) = 0.77	 
{(1, 3), (0, 0), (3, 3), (3, 0), (2, 3), (1, 0)}
obj:  0.8274590726619535
solutions:  1
+ 0.006568144499178981x(1,3) + 0.10235358511220581x(3,3) + 0.015873015873015876x(2,3) 
[(1, 3), (0, 0), (3, 3), (3, 0), (2, 3), (1, 0)]
cliques:  1 mip: 77
C:  30.384868421052673
x(0,0) = 1.10	 x(0,1) = 23.38	 x(0,2) = 14.10	 x(0,3) = 11.10	 
x(1,0) = 0.00	 x(1,1) = 8.00	 x(1,2) = 13.00	 x(1,3) = 1.00	 
x(2,0) = 29.38	 x(2,1) = 22.38	 x(2,2) = 19.38	 x(2,3) = 10.38	 
x(3,0) = 11.10	 x(3,1) = 1.10	 x(3,2) = 20.10	 x(3,3) = 8.10	 
y(0,1,0) = 0.00	 y(1,0,0) = 1.00	 
y(0,2,0) = 0.93	 y(2,0,0) = 0.07	 
y(0,3,0) = 1.00	 y(3,0,0) = 0.00	 
y(1,2,0) = 0.75	 y(2,1,0) = 0.25	 
y(1,3,0) = 0.59	 y(3,1,0) = 0.41	 
y(2,3,0) = 0.00	 y(3,2,0) = 1.00	 
y(0,1,1) = 0.00	 y(1,0,1) = 1.00	 
y(0,2,1) = 0.25	 y(2,0,1) = 0.75	 
y(0,3,1) = 0.00	 y(3,0,1) = 1.00	 
y(1,2,1) = 0.61	 y(2,1,1) = 0.39	 
y(1,3,1) = 0.01	 y(3,1,1) = 0.99	 
y(2,3,1) = 0.00	 y(3,2,1) = 1.00	 
y(0,1,2) = 0.26	 y(1,0,2) = 0.74	 
y(0,2,2) = 0.35	 y(2,0,2) = 0.65	 
y(0,3,2) = 1.00	 y(3,0,2) = 0.00	 
y(1,2,2) = 0.41	 y(2,1,2) = 0.59	 
y(1,3,2) = 0.96	 y(3,1,2) = 0.04	 
y(2,3,2) = 0.87	 y(3,2,2) = 0.13	 
y(0,1,3) = 0.00	 y(1,0,3) = 1.00	 
y(0,2,3) = 0.41	 y(2,0,3) = 0.59	 
y(0,3,3) = 0.00	 y(3,0,3) = 1.00	 
y(1,2,3) = 0.82	 y(2,1,3) = 0.18	 
y(1,3,3) = 0.84	 y(3,1,3) = 0.16	 
y(2,3,3) = 0.03	 y(3,2,3) = 0.97	 
{(0, 3), (0, 0), (2, 3)}
obj:  1.1095394736842097
erro
[(0, 3), (0, 0), (2, 3)]
cliques:  0 mip: 63
C:  31.0
x(0,0) = 1.00	 x(0,1) = 22.95	 x(0,2) = 16.95	 x(0,3) = 11.00	 
x(1,0) = -0.00	 x(1,1) = 8.17	 x(1,2) = 13.17	 x(1,3) = 1.17	 
x(2,0) = 30.00	 x(2,1) = 16.99	 x(2,2) = 13.99	 x(2,3) = 4.99	 
x(3,0) = 11.92	 x(3,1) = 1.92	 x(3,2) = 20.92	 x(3,3) = 8.92	 
y(0,1,0) = 0.00	 y(1,0,0) = 1.00	 
y(0,2,0) = 0.86	 y(2,0,0) = 0.14	 
y(0,3,0) = 1.00	 y(3,0,0) = 0.00	 
y(1,2,0) = 0.83	 y(2,1,0) = 0.17	 
y(1,3,0) = 0.99	 y(3,1,0) = 0.01	 
y(2,3,0) = 0.00	 y(3,2,0) = 1.00	 
y(0,1,1) = 0.14	 y(1,0,1) = 0.86	 
y(0,2,1) = 0.46	 y(2,0,1) = 0.54	 
y(0,3,1) = 0.00	 y(3,0,1) = 1.00	 
y(1,2,1) = 0.83	 y(2,1,1) = 0.17	 
y(1,3,1) = 0.05	 y(3,1,1) = 0.95	 
y(2,3,1) = 0.00	 y(3,2,1) = 1.00	 
y(0,1,2) = 0.13	 y(1,0,2) = 0.87	 
y(0,2,2) = 0.00	 y(2,0,2) = 1.00	 
y(0,3,2) = 0.67	 y(3,0,2) = 0.33	 
y(1,2,2) = 0.41	 y(2,1,2) = 0.59	 
y(1,3,2) = 0.99	 y(3,1,2) = 0.01	 
y(2,3,2) = 1.00	 y(3,2,2) = 0.00	 
y(0,1,3) = 0.00	 y(1,0,3) = 1.00	 
y(0,2,3) = 0.16	 y(2,0,3) = 0.84	 
y(0,3,3) = 0.06	 y(3,0,3) = 0.94	 
y(1,2,3) = 0.90	 y(2,1,3) = 0.10	 
y(1,3,3) = 0.86	 y(3,1,3) = 0.14	 
y(2,3,3) = 0.56	 y(3,2,3) = 0.44	 
{(0, 1), (1, 2), (2, 1), (1, 1), (2, 2), (0, 2)}
obj:  0.9321527838587965
solutions:  1
+ 0.04672897196261683x(1,2) + 0.018691588785046724x(0,2) 
[(0, 1), (1, 2), (2, 1), (1, 1), (2, 2), (0, 2)]
cliques:  1 mip: 70
C:  30.999999999999993
x(0,0) = 1.45	 x(0,1) = 24.00	 x(0,2) = 18.00	 x(0,3) = 11.45	 
x(1,0) = 0.45	 x(1,1) = 9.20	 x(1,2) = 14.20	 x(1,3) = 2.20	 
x(2,0) = 30.00	 x(2,1) = 19.70	 x(2,2) = 16.70	 x(2,3) = 7.70	 
x(3,0) = 11.44	 x(3,1) = 1.44	 x(3,2) = 20.44	 x(3,3) = 8.44	 
y(0,1,0) = 0.00	 y(1,0,0) = 1.00	 
y(0,2,0) = 0.86	 y(2,0,0) = 0.14	 
y(0,3,0) = 1.00	 y(3,0,0) = 0.00	 
y(1,2,0) = 0.81	 y(2,1,0) = 0.19	 
y(1,3,0) = 0.93	 y(3,1,0) = 0.07	 
y(2,3,0) = 0.00	 y(3,2,0) = 1.00	 
y(0,1,1) = 0.15	 y(1,0,1) = 0.85	 
y(0,2,1) = 0.61	 y(2,0,1) = 0.39	 
y(0,3,1) = 0.00	 y(3,0,1) = 1.00	 
y(1,2,1) = 0.82	 y(2,1,1) = 0.18	 
y(1,3,1) = 0.03	 y(3,1,1) = 0.97	 
y(2,3,1) = 0.00	 y(3,2,1) = 1.00	 
y(0,1,2) = 0.13	 y(1,0,2) = 0.87	 
y(0,2,2) = 0.07	 y(2,0,2) = 0.93	 
y(0,3,2) = 0.63	 y(3,0,2) = 0.37	 
y(1,2,2) = 0.59	 y(2,1,2) = 0.41	 
y(1,3,2) = 0.93	 y(3,1,2) = 0.07	 
y(2,3,2) = 1.00	 y(3,2,2) = 0.00	 
y(0,1,3) = 0.00	 y(1,0,3) = 1.00	 
y(0,2,3) = 0.24	 y(2,0,3) = 0.76	 
y(0,3,3) = 0.00	 y(3,0,3) = 1.00	 
y(1,2,3) = 0.95	 y(2,1,3) = 0.05	 
y(1,3,3) = 0.93	 y(3,1,3) = 0.07	 
y(2,3,3) = 0.36	 y(3,2,3) = 0.64	 
{(1, 2), (0, 1), (1, 3), (1, 1), (2, 3), (2, 2), (0, 2)}
obj:  1.0
erro
[(1, 2), (0, 1), (1, 3), (1, 1), (2, 3), (2, 2), (0, 2)]
cliques:  0 mip: 88
C:  31.646849448349474
x(0,0) = 1.23	 x(0,1) = 24.65	 x(0,2) = 14.08	 x(0,3) = 11.23	 
x(1,0) = 2.04	 x(1,1) = 12.82	 x(1,2) = 17.82	 x(1,3) = 5.82	 
x(2,0) = 30.65	 x(2,1) = 23.04	 x(2,2) = 20.04	 x(2,3) = 11.04	 
x(3,0) = 10.68	 x(3,1) = 0.68	 x(3,2) = 19.68	 x(3,3) = 7.68	 
y(0,1,0) = 0.08	 y(1,0,0) = 0.92	 
y(0,2,0) = 0.73	 y(2,0,0) = 0.27	 
y(0,3,0) = 0.56	 y(3,0,0) = 0.44	 
y(1,2,0) = 0.67	 y(2,1,0) = 0.33	 
y(1,3,0) = 0.77	 y(3,1,0) = 0.23	 
y(2,3,0) = 0.00	 y(3,2,0) = 1.00	 
y(0,1,1) = 0.02	 y(1,0,1) = 0.98	 
y(0,2,1) = 0.72	 y(2,0,1) = 0.28	 
y(0,3,1) = 0.00	 y(3,0,1) = 1.00	 
y(1,2,1) = 0.81	 y(2,1,1) = 0.19	 
y(1,3,1) = 0.35	 y(3,1,1) = 0.65	 
y(2,3,1) = 0.00	 y(3,2,1) = 1.00	 
y(0,1,2) = 0.89	 y(1,0,2) = 0.11	 
y(0,2,2) = 0.36	 y(2,0,2) = 0.64	 
y(0,3,2) = 0.47	 y(3,0,2) = 0.53	 
y(1,2,2) = 0.56	 y(2,1,2) = 0.44	 
y(1,3,2) = 0.75	 y(3,1,2) = 0.25	 
y(2,3,2) = 0.28	 y(3,2,2) = 0.72	 
y(0,1,3) = 0.08	 y(1,0,3) = 0.92	 
y(0,2,3) = 0.38	 y(2,0,3) = 0.62	 
y(0,3,3) = 0.00	 y(3,0,3) = 1.00	 
y(1,2,3) = 0.77	 y(2,1,3) = 0.23	 
y(1,3,3) = 0.69	 y(3,1,3) = 0.31	 
y(2,3,3) = 0.05	 y(3,2,3) = 0.95	 
{(1, 2), (3, 2), (1, 3), (3, 0), (2, 2), (0, 3), (0, 2)}
obj:  0.8700791937782697
solutions:  1
+ 0.014930399640772345x(1,2) + 0.02346205657835653x(3,2) + 0.010103277952402331x(0,2) 
[(1, 2), (3, 2), (1, 3), (3, 0), (2, 2), (0, 3), (0, 2)]
cliques:  1 mip: 77
C:  33.23904261084791
x(0,0) = 0.80	 x(0,1) = 26.24	 x(0,2) = 20.24	 x(0,3) = 10.80	 
x(1,0) = 3.99	 x(1,1) = 14.47	 x(1,2) = 21.09	 x(1,3) = 7.47	 
x(2,0) = 32.24	 x(2,1) = 24.96	 x(2,2) = 20.75	 x(2,3) = 10.74	 
x(3,0) = 10.74	 x(3,1) = 0.74	 x(3,2) = 20.49	 x(3,3) = 7.74	 
y(0,1,0) = 0.17	 y(1,0,0) = 0.83	 
y(0,2,0) = 0.93	 y(2,0,0) = 0.07	 
y(0,3,0) = 0.57	 y(3,0,0) = 0.43	 
y(1,2,0) = 0.90	 y(2,1,0) = 0.10	 
y(1,3,0) = 0.64	 y(3,1,0) = 0.36	 
y(2,3,0) = 0.00	 y(3,2,0) = 1.00	 
y(0,1,1) = 0.04	 y(1,0,1) = 0.96	 
y(0,2,1) = 0.53	 y(2,0,1) = 0.47	 
y(0,3,1) = 0.00	 y(3,0,1) = 1.00	 
y(1,2,1) = 0.76	 y(2,1,1) = 0.24	 
y(1,3,1) = 0.36	 y(3,1,1) = 0.64	 
y(2,3,1) = 0.00	 y(3,2,1) = 1.00	 
y(0,1,2) = 0.47	 y(1,0,2) = 0.53	 
y(0,2,2) = 0.17	 y(2,0,2) = 0.83	 
y(0,3,2) = 0.68	 y(3,0,2) = 0.32	 
y(1,2,2) = 0.22	 y(2,1,2) = 0.78	 
y(1,3,2) = 0.66	 y(3,1,2) = 0.34	 
y(2,3,2) = 0.81	 y(3,2,2) = 0.19	 
y(0,1,3) = 0.17	 y(1,0,3) = 0.83	 
y(0,2,3) = 0.39	 y(2,0,3) = 0.61	 
y(0,3,3) = 0.00	 y(3,0,3) = 1.00	 
y(1,2,3) = 0.48	 y(2,1,3) = 0.52	 
y(1,3,3) = 0.41	 y(3,1,3) = 0.59	 
y(2,3,3) = 0.00	 y(3,2,3) = 1.00	 
{(1, 3), (0, 0), (2, 3), (1, 0), (0, 3)}
obj:  1.0795350091702312
erro
[(1, 3), (0, 0), (2, 3), (1, 0), (0, 3)]
cliques:  0 mip: 65
C:  33.999997095598815
x(0,0) = 1.47	 x(0,1) = 27.00	 x(0,2) = 18.72	 x(0,3) = 11.47	 
x(1,0) = 2.55	 x(1,1) = 13.29	 x(1,2) = 18.29	 x(1,3) = 6.29	 
x(2,0) = 33.00	 x(2,1) = 25.08	 x(2,2) = 22.08	 x(2,3) = 11.47	 
x(3,0) = 11.47	 x(3,1) = 1.47	 x(3,2) = 22.92	 x(3,3) = 8.47	 
y(0,1,0) = 0.09	 y(1,0,0) = 0.91	 
y(0,2,0) = 0.84	 y(2,0,0) = 0.16	 
y(0,3,0) = 0.57	 y(3,0,0) = 0.43	 
y(1,2,0) = 0.85	 y(2,1,0) = 0.15	 
y(1,3,0) = 0.70	 y(3,1,0) = 0.30	 
y(2,3,0) = 0.00	 y(3,2,0) = 1.00	 
y(0,1,1) = 0.00	 y(1,0,1) = 1.00	 
y(0,2,1) = 0.50	 y(2,0,1) = 0.50	 
y(0,3,1) = 0.00	 y(3,0,1) = 1.00	 
y(1,2,1) = 0.78	 y(2,1,1) = 0.22	 
y(1,3,1) = 0.20	 y(3,1,1) = 0.80	 
y(2,3,1) = 0.00	 y(3,2,1) = 1.00	 
y(0,1,2) = 0.38	 y(1,0,2) = 0.62	 
y(0,2,2) = 0.25	 y(2,0,2) = 0.75	 
y(0,3,2) = 0.69	 y(3,0,2) = 0.31	 
y(1,2,2) = 0.49	 y(2,1,2) = 0.51	 
y(1,3,2) = 0.87	 y(3,1,2) = 0.13	 
y(2,3,2) = 0.87	 y(3,2,2) = 0.13	 
y(0,1,3) = 0.09	 y(1,0,3) = 0.91	 
y(0,2,3) = 0.39	 y(2,0,3) = 0.61	 
y(0,3,3) = 0.00	 y(3,0,3) = 1.00	 
y(1,2,3) = 0.73	 y(2,1,3) = 0.27	 
y(1,3,3) = 0.61	 y(3,1,3) = 0.39	 
y(2,3,3) = 0.00	 y(3,2,3) = 1.00	 
{(0, 1), (1, 2), (2, 1), (2, 2), (0, 2)}
obj:  1.2046156548606777
erro
[(0, 1), (1, 2), (2, 1), (2, 2), (0, 2)]
cliques:  0 mip: 96
C:  34.100911114194204
x(0,0) = 0.86	 x(0,1) = 27.10	 x(0,2) = 21.10	 x(0,3) = 11.19	 
x(1,0) = 1.42	 x(1,1) = 9.42	 x(1,2) = 15.61	 x(1,3) = 2.42	 
x(2,0) = 33.10	 x(2,1) = 25.42	 x(2,2) = 19.54	 x(2,3) = 10.54	 
x(3,0) = 11.19	 x(3,1) = 1.19	 x(3,2) = 23.61	 x(3,3) = 8.19	 
y(0,1,0) = 0.41	 y(1,0,0) = 0.59	 
y(0,2,0) = 0.78	 y(2,0,0) = 0.22	 
y(0,3,0) = 0.57	 y(3,0,0) = 0.43	 
y(1,2,0) = 0.97	 y(2,1,0) = 0.03	 
y(1,3,0) = 0.90	 y(3,1,0) = 0.10	 
y(2,3,0) = 0.00	 y(3,2,0) = 1.00	 
y(0,1,1) = 0.02	 y(1,0,1) = 0.98	 
y(0,2,1) = 0.44	 y(2,0,1) = 0.56	 
y(0,3,1) = 0.00	 y(3,0,1) = 1.00	 
y(1,2,1) = 0.92	 y(2,1,1) = 0.08	 
y(1,3,1) = 0.05	 y(3,1,1) = 0.95	 
y(2,3,1) = 0.00	 y(3,2,1) = 1.00	 
y(0,1,2) = 0.08	 y(1,0,2) = 0.92	 
y(0,2,2) = 0.06	 y(2,0,2) = 0.94	 
y(0,3,2) = 0.38	 y(3,0,2) = 0.62	 
y(1,2,2) = 0.45	 y(2,1,2) = 0.55	 
y(1,3,2) = 1.00	 y(3,1,2) = 0.00	 
y(2,3,2) = 0.95	 y(3,2,2) = 0.05	 
y(0,1,3) = 0.08	 y(1,0,3) = 0.92	 
y(0,2,3) = 0.38	 y(2,0,3) = 0.62	 
y(0,3,3) = 0.00	 y(3,0,3) = 1.00	 
y(1,2,3) = 0.93	 y(2,1,3) = 0.07	 
y(1,3,3) = 0.95	 y(3,1,3) = 0.05	 
y(2,3,3) = 0.03	 y(3,2,3) = 0.97	 
{(1, 2), (0, 1), (1, 3), (0, 2), (2, 3), (2, 2), (1, 1)}
obj:  1.1236162540504302
erro
[(1, 2), (0, 1), (1, 3), (0, 2), (2, 3), (2, 2), (1, 1)]
cliques:  0 mip: 78
C:  34.99999433135257
x(0,0) = 0.60	 x(0,1) = 28.00	 x(0,2) = 20.72	 x(0,3) = 14.47	 
x(1,0) = 4.03	 x(1,1) = 14.47	 x(1,2) = 19.47	 x(1,3) = 7.47	 
x(2,0) = 34.00	 x(2,1) = 27.00	 x(2,2) = 23.48	 x(2,3) = 14.48	 
x(3,0) = 13.69	 x(3,1) = 3.69	 x(3,2) = 23.84	 x(3,3) = 10.69	 
y(0,1,0) = 0.18	 y(1,0,0) = 0.82	 
y(0,2,0) = 0.96	 y(2,0,0) = 0.04	 
y(0,3,0) = 0.65	 y(3,0,0) = 0.35	 
y(1,2,0) = 0.91	 y(2,1,0) = 0.09	 
y(1,3,0) = 0.64	 y(3,1,0) = 0.36	 
y(2,3,0) = 0.00	 y(3,2,0) = 1.00	 
y(0,1,1) = 0.00	 y(1,0,1) = 1.00	 
y(0,2,1) = 0.24	 y(2,0,1) = 0.76	 
y(0,3,1) = 0.00	 y(3,0,1) = 1.00	 
y(1,2,1) = 0.77	 y(2,1,1) = 0.23	 
y(1,3,1) = 0.16	 y(3,1,1) = 0.84	 
y(2,3,1) = 0.00	 y(3,2,1) = 1.00	 
y(0,1,2) = 0.70	 y(1,0,2) = 0.30	 
y(0,2,2) = 0.23	 y(2,0,2) = 0.77	 
y(0,3,2) = 0.82	 y(3,0,2) = 0.18	 
y(1,2,2) = 0.43	 y(2,1,2) = 0.57	 
y(1,3,2) = 0.85	 y(3,1,2) = 0.15	 
y(2,3,2) = 0.84	 y(3,2,2) = 0.16	 
y(0,1,3) = 0.00	 y(1,0,3) = 1.00	 
y(0,2,3) = 0.43	 y(2,0,3) = 0.57	 
y(0,3,3) = 0.00	 y(3,0,3) = 1.00	 
y(1,2,3) = 0.87	 y(2,1,3) = 0.13	 
y(1,3,3) = 0.41	 y(3,1,3) = 0.59	 
y(2,3,3) = 0.34	 y(3,2,3) = 0.66	 
{(1, 2), (0, 1), (1, 3), (1, 1), (2, 3), (2, 2), (0, 2)}
obj:  1.2972817177490628
erro
[(1, 2), (0, 1), (1, 3), (1, 1), (2, 3), (2, 2), (0, 2)]
cliques:  0 mip: 70
C:  34.99999433135257
x(0,0) = 0.60	 x(0,1) = 28.00	 x(0,2) = 20.72	 x(0,3) = 14.47	 
x(1,0) = 4.03	 x(1,1) = 14.47	 x(1,2) = 19.47	 x(1,3) = 7.47	 
x(2,0) = 34.00	 x(2,1) = 27.00	 x(2,2) = 23.48	 x(2,3) = 14.48	 
x(3,0) = 13.69	 x(3,1) = 3.69	 x(3,2) = 23.84	 x(3,3) = 10.69	 
y(0,1,0) = 0.18	 y(1,0,0) = 0.82	 
y(0,2,0) = 0.96	 y(2,0,0) = 0.04	 
y(0,3,0) = 0.65	 y(3,0,0) = 0.35	 
y(1,2,0) = 0.91	 y(2,1,0) = 0.09	 
y(1,3,0) = 0.64	 y(3,1,0) = 0.36	 
y(2,3,0) = 0.00	 y(3,2,0) = 1.00	 
y(0,1,1) = 0.00	 y(1,0,1) = 1.00	 
y(0,2,1) = 0.24	 y(2,0,1) = 0.76	 
y(0,3,1) = 0.00	 y(3,0,1) = 1.00	 
y(1,2,1) = 0.77	 y(2,1,1) = 0.23	 
y(1,3,1) = 0.16	 y(3,1,1) = 0.84	 
y(2,3,1) = 0.00	 y(3,2,1) = 1.00	 
y(0,1,2) = 0.70	 y(1,0,2) = 0.30	 
y(0,2,2) = 0.23	 y(2,0,2) = 0.77	 
y(0,3,2) = 0.82	 y(3,0,2) = 0.18	 
y(1,2,2) = 0.43	 y(2,1,2) = 0.57	 
y(1,3,2) = 0.85	 y(3,1,2) = 0.15	 
y(2,3,2) = 0.84	 y(3,2,2) = 0.16	 
y(0,1,3) = 0.00	 y(1,0,3) = 1.00	 
y(0,2,3) = 0.43	 y(2,0,3) = 0.57	 
y(0,3,3) = 0.00	 y(3,0,3) = 1.00	 
y(1,2,3) = 0.87	 y(2,1,3) = 0.13	 
y(1,3,3) = 0.41	 y(3,1,3) = 0.59	 
y(2,3,3) = 0.34	 y(3,2,3) = 0.66	 
{(1, 2), (0, 1), (1, 3), (1, 1), (2, 3), (2, 2), (0, 2)}
obj:  1.2972817177490628
erro
[(1, 2), (0, 1), (1, 3), (1, 1), (2, 3), (2, 2), (0, 2)]
cliques:  0 mip: 70
C:  34.99999433135257
x(0,0) = 0.60	 x(0,1) = 28.00	 x(0,2) = 20.72	 x(0,3) = 14.47	 
x(1,0) = 4.03	 x(1,1) = 14.47	 x(1,2) = 19.47	 x(1,3) = 7.47	 
x(2,0) = 34.00	 x(2,1) = 27.00	 x(2,2) = 23.48	 x(2,3) = 14.48	 
x(3,0) = 13.69	 x(3,1) = 3.69	 x(3,2) = 23.84	 x(3,3) = 10.69	 
y(0,1,0) = 0.18	 y(1,0,0) = 0.82	 
y(0,2,0) = 0.96	 y(2,0,0) = 0.04	 
y(0,3,0) = 0.65	 y(3,0,0) = 0.35	 
y(1,2,0) = 0.91	 y(2,1,0) = 0.09	 
y(1,3,0) = 0.64	 y(3,1,0) = 0.36	 
y(2,3,0) = 0.00	 y(3,2,0) = 1.00	 
y(0,1,1) = 0.00	 y(1,0,1) = 1.00	 
y(0,2,1) = 0.24	 y(2,0,1) = 0.76	 
y(0,3,1) = 0.00	 y(3,0,1) = 1.00	 
y(1,2,1) = 0.77	 y(2,1,1) = 0.23	 
y(1,3,1) = 0.16	 y(3,1,1) = 0.84	 
y(2,3,1) = 0.00	 y(3,2,1) = 1.00	 
y(0,1,2) = 0.70	 y(1,0,2) = 0.30	 
y(0,2,2) = 0.23	 y(2,0,2) = 0.77	 
y(0,3,2) = 0.82	 y(3,0,2) = 0.18	 
y(1,2,2) = 0.43	 y(2,1,2) = 0.57	 
y(1,3,2) = 0.85	 y(3,1,2) = 0.15	 
y(2,3,2) = 0.84	 y(3,2,2) = 0.16	 
y(0,1,3) = 0.00	 y(1,0,3) = 1.00	 
y(0,2,3) = 0.43	 y(2,0,3) = 0.57	 
y(0,3,3) = 0.00	 y(3,0,3) = 1.00	 
y(1,2,3) = 0.87	 y(2,1,3) = 0.13	 
y(1,3,3) = 0.41	 y(3,1,3) = 0.59	 
y(2,3,3) = 0.34	 y(3,2,3) = 0.66	 
{(1, 2), (0, 1), (1, 3), (1, 1), (2, 3), (2, 2), (0, 2)}
obj:  1.2972817177490628
erro
[(1, 2), (0, 1), (1, 3), (1, 1), (2, 3), (2, 2), (0, 2)]
cliques:  0 mip: 70
C:  34.99999433135257
x(0,0) = 0.60	 x(0,1) = 28.00	 x(0,2) = 20.72	 x(0,3) = 14.47	 
x(1,0) = 4.03	 x(1,1) = 14.47	 x(1,2) = 19.47	 x(1,3) = 7.47	 
x(2,0) = 34.00	 x(2,1) = 27.00	 x(2,2) = 23.48	 x(2,3) = 14.48	 
x(3,0) = 13.69	 x(3,1) = 3.69	 x(3,2) = 23.84	 x(3,3) = 10.69	 
y(0,1,0) = 0.18	 y(1,0,0) = 0.82	 
y(0,2,0) = 0.96	 y(2,0,0) = 0.04	 
y(0,3,0) = 0.65	 y(3,0,0) = 0.35	 
y(1,2,0) = 0.91	 y(2,1,0) = 0.09	 
y(1,3,0) = 0.64	 y(3,1,0) = 0.36	 
y(2,3,0) = 0.00	 y(3,2,0) = 1.00	 
y(0,1,1) = 0.00	 y(1,0,1) = 1.00	 
y(0,2,1) = 0.24	 y(2,0,1) = 0.76	 
y(0,3,1) = 0.00	 y(3,0,1) = 1.00	 
y(1,2,1) = 0.77	 y(2,1,1) = 0.23	 
y(1,3,1) = 0.16	 y(3,1,1) = 0.84	 
y(2,3,1) = 0.00	 y(3,2,1) = 1.00	 
y(0,1,2) = 0.70	 y(1,0,2) = 0.30	 
y(0,2,2) = 0.23	 y(2,0,2) = 0.77	 
y(0,3,2) = 0.82	 y(3,0,2) = 0.18	 
y(1,2,2) = 0.43	 y(2,1,2) = 0.57	 
y(1,3,2) = 0.85	 y(3,1,2) = 0.15	 
y(2,3,2) = 0.84	 y(3,2,2) = 0.16	 
y(0,1,3) = 0.00	 y(1,0,3) = 1.00	 
y(0,2,3) = 0.43	 y(2,0,3) = 0.57	 
y(0,3,3) = 0.00	 y(3,0,3) = 1.00	 
y(1,2,3) = 0.87	 y(2,1,3) = 0.13	 
y(1,3,3) = 0.41	 y(3,1,3) = 0.59	 
y(2,3,3) = 0.34	 y(3,2,3) = 0.66	 
{(1, 2), (0, 1), (1, 3), (1, 1), (2, 3), (2, 2), (0, 2)}
obj:  1.2972817177490628
erro
[(1, 2), (0, 1), (1, 3), (1, 1), (2, 3), (2, 2), (0, 2)]
cliques:  0 mip: 70
C:  34.99999433135257
x(0,0) = 0.60	 x(0,1) = 28.00	 x(0,2) = 20.72	 x(0,3) = 14.47	 
x(1,0) = 4.03	 x(1,1) = 14.47	 x(1,2) = 19.47	 x(1,3) = 7.47	 
x(2,0) = 34.00	 x(2,1) = 27.00	 x(2,2) = 23.48	 x(2,3) = 14.48	 
x(3,0) = 13.69	 x(3,1) = 3.69	 x(3,2) = 23.84	 x(3,3) = 10.69	 
y(0,1,0) = 0.18	 y(1,0,0) = 0.82	 
y(0,2,0) = 0.96	 y(2,0,0) = 0.04	 
y(0,3,0) = 0.65	 y(3,0,0) = 0.35	 
y(1,2,0) = 0.91	 y(2,1,0) = 0.09	 
y(1,3,0) = 0.64	 y(3,1,0) = 0.36	 
y(2,3,0) = 0.00	 y(3,2,0) = 1.00	 
y(0,1,1) = 0.00	 y(1,0,1) = 1.00	 
y(0,2,1) = 0.24	 y(2,0,1) = 0.76	 
y(0,3,1) = 0.00	 y(3,0,1) = 1.00	 
y(1,2,1) = 0.77	 y(2,1,1) = 0.23	 
y(1,3,1) = 0.16	 y(3,1,1) = 0.84	 
y(2,3,1) = 0.00	 y(3,2,1) = 1.00	 
y(0,1,2) = 0.70	 y(1,0,2) = 0.30	 
y(0,2,2) = 0.23	 y(2,0,2) = 0.77	 
y(0,3,2) = 0.82	 y(3,0,2) = 0.18	 
y(1,2,2) = 0.43	 y(2,1,2) = 0.57	 
y(1,3,2) = 0.85	 y(3,1,2) = 0.15	 
y(2,3,2) = 0.84	 y(3,2,2) = 0.16	 
y(0,1,3) = 0.00	 y(1,0,3) = 1.00	 
y(0,2,3) = 0.43	 y(2,0,3) = 0.57	 
y(0,3,3) = 0.00	 y(3,0,3) = 1.00	 
y(1,2,3) = 0.87	 y(2,1,3) = 0.13	 
y(1,3,3) = 0.41	 y(3,1,3) = 0.59	 
y(2,3,3) = 0.34	 y(3,2,3) = 0.66	 
{(1, 2), (0, 1), (1, 3), (1, 1), (2, 3), (2, 2), (0, 2)}
obj:  1.2972817177490628
erro
[(1, 2), (0, 1), (1, 3), (1, 1), (2, 3), (2, 2), (0, 2)]
cliques:  0 mip: 70
C:  34.99999433135257
x(0,0) = 0.60	 x(0,1) = 28.00	 x(0,2) = 20.72	 x(0,3) = 14.47	 
x(1,0) = 4.03	 x(1,1) = 14.47	 x(1,2) = 19.47	 x(1,3) = 7.47	 
x(2,0) = 34.00	 x(2,1) = 27.00	 x(2,2) = 23.48	 x(2,3) = 14.48	 
x(3,0) = 13.69	 x(3,1) = 3.69	 x(3,2) = 23.84	 x(3,3) = 10.69	 
y(0,1,0) = 0.18	 y(1,0,0) = 0.82	 
y(0,2,0) = 0.96	 y(2,0,0) = 0.04	 
y(0,3,0) = 0.65	 y(3,0,0) = 0.35	 
y(1,2,0) = 0.91	 y(2,1,0) = 0.09	 
y(1,3,0) = 0.64	 y(3,1,0) = 0.36	 
y(2,3,0) = 0.00	 y(3,2,0) = 1.00	 
y(0,1,1) = 0.00	 y(1,0,1) = 1.00	 
y(0,2,1) = 0.24	 y(2,0,1) = 0.76	 
y(0,3,1) = 0.00	 y(3,0,1) = 1.00	 
y(1,2,1) = 0.77	 y(2,1,1) = 0.23	 
y(1,3,1) = 0.16	 y(3,1,1) = 0.84	 
y(2,3,1) = 0.00	 y(3,2,1) = 1.00	 
y(0,1,2) = 0.70	 y(1,0,2) = 0.30	 
y(0,2,2) = 0.23	 y(2,0,2) = 0.77	 
y(0,3,2) = 0.82	 y(3,0,2) = 0.18	 
y(1,2,2) = 0.43	 y(2,1,2) = 0.57	 
y(1,3,2) = 0.85	 y(3,1,2) = 0.15	 
y(2,3,2) = 0.84	 y(3,2,2) = 0.16	 
y(0,1,3) = 0.00	 y(1,0,3) = 1.00	 
y(0,2,3) = 0.43	 y(2,0,3) = 0.57	 
y(0,3,3) = 0.00	 y(3,0,3) = 1.00	 
y(1,2,3) = 0.87	 y(2,1,3) = 0.13	 
y(1,3,3) = 0.41	 y(3,1,3) = 0.59	 
y(2,3,3) = 0.34	 y(3,2,3) = 0.66	 
{(1, 2), (0, 1), (1, 3), (1, 1), (2, 3), (2, 2), (0, 2)}
obj:  1.2972817177490628
erro
[(1, 2), (0, 1), (1, 3), (1, 1), (2, 3), (2, 2), (0, 2)]
cliques:  0 mip: 0
iterações: 15 cortes cliques encontrados: 5 mip: 1018 objective:  34.99999433135257
Coin0506I Presolve 157 (-171) rows, 90 (-71) columns and 490 (-260) elements
Clp1000I sum of infeasibilities 1.79124e-08 - average 1.14092e-10, 0 fixed columns
Coin0506I Presolve 157 (0) rows, 90 (0) columns and 490 (0) elements
Clp0029I End of values pass after 90 iterations
Clp0000I Optimal - objective value 29
Clp0000I Optimal - objective value 29
Coin0511I After Postsolve, objective 29, infeasibilities - dual 0 (0), primal 0 (0)
Clp0000I Optimal - objective value 29
Clp0000I Optimal - objective value 29
Clp0000I Optimal - objective value 29
Coin0511I After Postsolve, objective 29, infeasibilities - dual 0 (0), primal 0 (0)
Clp0032I Optimal objective 29 - 0 iterations time 0.012, Presolve 0.00, Idiot 0.01
Coin3009W Conflict graph built in 0.000 seconds, density: 0.098%
